Global Parameters
ISTART =  0            (Not Read existing wavefunction; if there)
ISPIN  =  1            (Non-Spin polarised DFT, Default=1)

ICHARG =  2            (The initial guess charge density is generated by superposition of atomic charge density)
LREAL  =  Auto         (Projection operators: automatic)
ENCUT  =  850          (Cut-off energy for plane wave basis set, in eV)
IVDW   =  202          (The many-body dispersion energy method)

LWAVE  = .FALSE.       (Write WAVECAR or not)
LCHARG = .FALSE.       (Write CHGCAR or not)

PREC     =  Accurate   (Precision level)
KGAMMA   = .TRUE.      # GAMMA point
KSPACING = 0.15        # Automatically calculate k-points
ALGO     = Normal

Static Calculation
NSW    =   1           (Default: NSW = 0)
IBRION =  -1           (Ions are not moved)
ISMEAR =  -5           (gaussian smearing method)
SIGMA  =  0.02         (SIGMA is ignored for the tetrahedron method when ISMEAR = -5)

EDIFF  =  1E-08        (SCF energy convergence; in eV)

NELM   =  150          (Max electronic SCF steps)

KPAR   =  6            # make 4 groups, each group working on one set of k-points
NCORE  =  8            # one orbital handled by 4 cores

