POSCAR file written by Ovito 3.0.0-dev34
   1.00000000000000     
     2.4836365932452806    0.0000002034535485   -0.0000041677473132
     1.2418183321054987    2.1456041217692912    0.1317127123921151
    -0.0000855569600057    3.2400601700762475   48.3354620521550231
   C    B    N 
     2     1     1
Direct
  0.1815313215549724  0.1369340225169942  0.4651866272628684
  0.5148848166144258  0.4702270642780603  0.4651827544708012
  0.6350727201835369  0.2298578766706849  0.5348065256411395
  0.9685111468059356  0.5629810365342592  0.5348240926251907
 
  0.00000000E+00  0.00000000E+00  0.00000000E+00
  0.00000000E+00  0.00000000E+00  0.00000000E+00
  0.00000000E+00  0.00000000E+00  0.00000000E+00
  0.00000000E+00  0.00000000E+00  0.00000000E+00
