POSCAR file written by Ovito 3.0.0-dev349
1
2.4811627818 0.0 0.0
1.2405813909 2.14875 0.0
0.0 0.0 50.0
C B N 
2 1 1 
Cartesian
0.6202907 0.358125 23.3
1.86087209 1.074375 23.3
3.10145348 2.5785 26.7
4.34203487 3.29475 26.7
